\ Model Routes
\ LP format - for model browsing. Use MPS format to capture full model detail.
Maximize
  1295.445206194839 R{0,0} + 2353.896024458567 R{0,1}
   + 2353.896024458567 R{0,2} - 249.2301939667805 R{0,3}
   + 234.7650315204939 R{0,4} + 397.2891588355392 R{0,5}
   + 2053.709642684548 R{0,6} + 1981.782059259677 R{0,7}
   + 2258.331587007034 R{0,8} + 1775.901513590744 R{0,9}
   + 2258.331587007034 R{0,10} + 1492.544510960954 R{0,11}
   + 1835.910355825503 R{0,12} + 1034.824477263447 R{0,13}
   + 1422.013328210928 R{0,14} + 1089.760215380243 R{0,15}
   + 1177.8189140076 R{0,16} + 1479.269324712793 R{0,17}
   + 1162.746800369461 R{0,18} + 1610.920309718256 R{0,19}
   + 1419.843930160565 R{0,20} + 1775.901513590744 R{0,21}
   + 1683.891269035279 R{0,22} + 1392.587654039528 R{0,23}
   - 256.140831891889 R{1,0} + 22.55008804458731 R{1,1}
   + 1141.439937477706 R{1,2} + 1141.439937477706 R{1,3}
   + 1592.81965978477 R{1,4} + 665.8095170145893 R{1,5}
   + 410.8092545222498 R{1,6} + 566.0776249868009 R{1,7}
   + 196.9542001066673 R{1,8} + 570.9267068241546 R{1,9}
   + 1322.267234187203 R{1,10} - 278.4443928850388 R{2,0}
   - 59.13410337035452 R{2,1} + 602.7748664658451 R{2,2}
   + 1100.505917706273 R{2,3} + 1127.126554447374 R{2,4}
   + 916.1789585751681 R{2,5} + 828.8248253792985 R{2,6}
   + 850.7767431229745 R{2,7} + 675.0053638221349 R{2,8}
   + 157.4662907254282 R{2,9} + 454.8232404798429 R{2,10}
   + 343.8687336675509 R{2,11} - 260.2482995389823 R{3,0}
   + 774.0461973521265 R{3,1} + 1844.436677924125 R{3,2}
   + 2205.439395194246 R{3,3} + 536.8644291485001 R{3,4}
   + 2373.085897708442 R{3,5} + 797.8868848661116 R{3,6}
   + 1113.414646745748 R{3,7} + 2183.805127317747 R{3,8}
   + 2231.290585817716 R{3,9} + 1112.047953499893 R{3,10}
   + 1599.917461087075 R{3,11} + 864.2259077645808 R{3,12}
   + 2094.880389388079 R{3,13} + 1505.746449435093 R{3,14}
   + 1082.590005145954 R{3,15} + 1857.631708323718 R{3,16}
   + 1659.933255546101 R{3,17} + 576.3352766112914 R{3,18}
   + 494.5498633700093 R{3,19} + 1553.696318191359 R{3,20}
   + 1785.893319523986 R{3,21} - 242.5208875955131 R{4,0}
   + 817.7894748373856 R{4,1} + 1338.413574514046 R{4,2}
   + 1280.693392418149 R{4,3} + 703.2028490724758 R{4,4}
   + 1127.543677281656 R{4,5} + 1036.58249094027 R{4,6}
   + 845.8739783640226 R{4,7} + 1036.58249094027 R{4,8}
   + 708.5921340399433 R{4,9} + 1162.451561450336 R{4,10}
   + 993.4616998013437 R{4,11} + 1336.957782131452 R{4,12}
   + 814.0983387872038 R{4,13} + 990.2618329575769 R{4,14}
   + 708.5921340399433 R{4,15} + 618.2761919641896 R{4,16}
   + 1005.399504172769 R{4,17} + 1309.093900798271 R{4,18}
   + 958.1196159735671 R{4,19} - 231.9775664337766 R{5,0}
   + 40.49903117334031 R{5,1} + 364.0546919427258 R{5,2}
   + 404.9759912974876 R{5,3} + 653.1102451903104 R{5,4}
   + 233.7793468195422 R{5,5} + 713.9845761372981 R{5,6}
   + 408.6971279716983 R{5,7} - 231.1436095783099 R{6,0}
   + 352.5135528432641 R{6,1} + 1182.947169502638 R{6,2}
   + 1748.092530245978 R{6,3} + 816.9704722435263 R{6,4}
   + 920.6611959559666 R{6,5} + 1133.97009911204 R{6,6}
   + 2142.237838556067 R{6,7} + 992.5440657331628 R{6,8}
   + 827.7234850341904 R{6,9} + 992.5440657331628 R{6,10}
   + 226.3165058327348 R{6,11} + 2198.77617580791 R{6,12}
   + 1838.133469026947 R{6,13} + 1153.462622295522 R{6,14}
   + 882.0870355143602 R{6,15} + 1476.895903153487 R{6,16}
   + 958.9947272864674 R{6,17} + 757.0122503912984 R{6,18}
   + 130.6637114041988 R{6,19}
Subject To
 R00: R{0,0} <= 1
 R01: R{0,1} <= 1
 R02: R{0,2} <= 1
 R03: R{0,3} <= 1
 R04: R{0,4} <= 1
 R05: R{0,5} <= 1
 R06: R{0,6} <= 1
 R07: R{0,7} <= 1
 R08: R{0,8} <= 1
 R09: R{0,9} <= 1
 R010: R{0,10} <= 1
 R011: R{0,11} <= 1
 R012: R{0,12} <= 1
 R013: R{0,13} <= 1
 R014: R{0,14} <= 1
 R015: R{0,15} <= 1
 R016: R{0,16} <= 1
 R017: R{0,17} <= 1
 R018: R{0,18} <= 1
 R019: R{0,19} <= 1
 R020: R{0,20} <= 1
 R021: R{0,21} <= 1
 R022: R{0,22} <= 1
 R023: R{0,23} <= 1
 R024: R{1,0} <= 1
 R025: R{1,1} <= 1
 R026: R{1,2} <= 1
 R027: R{1,3} <= 1
 R028: R{1,4} <= 1
 R029: R{1,5} <= 1
 R030: R{1,6} <= 1
 R031: R{1,7} <= 1
 R032: R{1,8} <= 1
 R033: R{1,9} <= 1
 R034: R{1,10} <= 1
 R035: R{2,0} <= 1
 R036: R{2,1} <= 1
 R037: R{2,2} <= 1
 R038: R{2,3} <= 1
 R039: R{2,4} <= 1
 R040: R{2,5} <= 1
 R041: R{2,6} <= 1
 R042: R{2,7} <= 1
 R043: R{2,8} <= 1
 R044: R{2,9} <= 1
 R045: R{2,10} <= 1
 R046: R{2,11} <= 1
 R047: R{3,0} <= 1
 R048: R{3,1} <= 1
 R049: R{3,2} <= 1
 R050: R{3,3} <= 1
 R051: R{3,4} <= 1
 R052: R{3,5} <= 1
 R053: R{3,6} <= 1
 R054: R{3,7} <= 1
 R055: R{3,8} <= 1
 R056: R{3,9} <= 1
 R057: R{3,10} <= 1
 R058: R{3,11} <= 1
 R059: R{3,12} <= 1
 R060: R{3,13} <= 1
 R061: R{3,14} <= 1
 R062: R{3,15} <= 1
 R063: R{3,16} <= 1
 R064: R{3,17} <= 1
 R065: R{3,18} <= 1
 R066: R{3,19} <= 1
 R067: R{3,20} <= 1
 R068: R{3,21} <= 1
 R069: R{4,0} <= 1
 R070: R{4,1} <= 1
 R071: R{4,2} <= 1
 R072: R{4,3} <= 1
 R073: R{4,4} <= 1
 R074: R{4,5} <= 1
 R075: R{4,6} <= 1
 R076: R{4,7} <= 1
 R077: R{4,8} <= 1
 R078: R{4,9} <= 1
 R079: R{4,10} <= 1
 R080: R{4,11} <= 1
 R081: R{4,12} <= 1
 R082: R{4,13} <= 1
 R083: R{4,14} <= 1
 R084: R{4,15} <= 1
 R085: R{4,16} <= 1
 R086: R{4,17} <= 1
 R087: R{4,18} <= 1
 R088: R{4,19} <= 1
 R089: R{5,0} <= 1
 R090: R{5,1} <= 1
 R091: R{5,2} <= 1
 R092: R{5,3} <= 1
 R093: R{5,4} <= 1
 R094: R{5,5} <= 1
 R095: R{5,6} <= 1
 R096: R{5,7} <= 1
 R097: R{6,0} <= 1
 R098: R{6,1} <= 1
 R099: R{6,2} <= 1
 R0100: R{6,3} <= 1
 R0101: R{6,4} <= 1
 R0102: R{6,5} <= 1
 R0103: R{6,6} <= 1
 R0104: R{6,7} <= 1
 R0105: R{6,8} <= 1
 R0106: R{6,9} <= 1
 R0107: R{6,10} <= 1
 R0108: R{6,11} <= 1
 R0109: R{6,12} <= 1
 R0110: R{6,13} <= 1
 R0111: R{6,14} <= 1
 R0112: R{6,15} <= 1
 R0113: R{6,16} <= 1
 R0114: R{6,17} <= 1
 R0115: R{6,18} <= 1
 R0116: R{6,19} <= 1
 R1_0: R{0,0} + R{0,1} + R{0,2} + R{0,3} + R{0,4} + R{0,5} + R{0,6}
   + R{0,7} + R{0,8} + R{0,9} + R{0,10} + R{0,11} + R{0,12} + R{0,13}
   + R{0,14} + R{0,15} + R{0,16} + R{0,17} + R{0,18} + R{0,19} + R{0,20}
   + R{0,21} + R{0,22} + R{0,23} <= 1
 R1_1: R{1,0} + R{1,1} + R{1,2} + R{1,3} + R{1,4} + R{1,5} + R{1,6}
   + R{1,7} + R{1,8} + R{1,9} + R{1,10} <= 1
 R1_2: R{2,0} + R{2,1} + R{2,2} + R{2,3} + R{2,4} + R{2,5} + R{2,6}
   + R{2,7} + R{2,8} + R{2,9} + R{2,10} + R{2,11} <= 1
 R1_3: R{3,0} + R{3,1} + R{3,2} + R{3,3} + R{3,4} + R{3,5} + R{3,6}
   + R{3,7} + R{3,8} + R{3,9} + R{3,10} + R{3,11} + R{3,12} + R{3,13}
   + R{3,14} + R{3,15} + R{3,16} + R{3,17} + R{3,18} + R{3,19} + R{3,20}
   + R{3,21} <= 1
 R1_4: R{4,0} + R{4,1} + R{4,2} + R{4,3} + R{4,4} + R{4,5} + R{4,6}
   + R{4,7} + R{4,8} + R{4,9} + R{4,10} + R{4,11} + R{4,12} + R{4,13}
   + R{4,14} + R{4,15} + R{4,16} + R{4,17} + R{4,18} + R{4,19} <= 1
 R1_5: R{5,0} + R{5,1} + R{5,2} + R{5,3} + R{5,4} + R{5,5} + R{5,6}
   + R{5,7} <= 1
 R1_6: R{6,0} + R{6,1} + R{6,2} + R{6,3} + R{6,4} + R{6,5} + R{6,6}
   + R{6,7} + R{6,8} + R{6,9} + R{6,10} + R{6,11} + R{6,12} + R{6,13}
   + R{6,14} + R{6,15} + R{6,16} + R{6,17} + R{6,18} + R{6,19} <= 1
 R2_0: 7 R{0,0} + 7 R{0,1} + 7 R{0,2} + 7 R{0,6} + 7 R{0,7} + 7 R{0,8}
   + 7 R{0,9} + 7 R{0,10} + 7 R{0,11} + 7 R{0,12} + 7 R{0,13} + 7 R{0,14}
   + 7 R{0,15} + 7 R{0,16} + 7 R{0,17} + 7 R{0,18} + 7 R{0,19} + 7 R{0,20}
   + 7 R{0,21} + 7 R{0,22} + 7 R{0,23} <= 7
 R2_1: 10 R{1,5} + 10 R{2,7} + 10 R{3,1} + 10 R{3,2} + 10 R{3,3}
   + 10 R{3,4} + 10 R{3,5} + 10 R{3,7} + 10 R{3,8} + 10 R{3,10}
   + 10 R{3,11} + 10 R{3,12} + 10 R{3,13} + 10 R{3,14} + 10 R{3,15}
   + 10 R{3,16} + 10 R{3,17} + 10 R{3,19} + 10 R{3,20} + 10 R{3,21} <= 10
 R2_2: <= 0
 R2_3: 4 R{5,1} + 4 R{5,2} + 4 R{5,3} + 4 R{5,4} <= 4
 R2_4: <= 0
 R2_5: 5 R{5,1} + 5 R{5,2} + 5 R{5,3} + 5 R{5,4} + 4 R{5,5} <= 5
 R2_6: 10 R{1,10} + 10 R{2,6} + 10 R{2,10} + 10 R{3,6} + 10 R{3,18}
   + 10 R{5,6} + 10 R{6,1} + 10 R{6,2} + 10 R{6,3} + 10 R{6,4} + 10 R{6,7}
   + 10 R{6,8} + 10 R{6,10} + 10 R{6,12} + 10 R{6,14} + 10 R{6,16}
   + 10 R{6,17} + 10 R{6,18} <= 10
 R2_7: <= 0
 R2_8: <= 0
 R2_9: 12 R{4,1} + 12 R{4,2} + 12 R{4,3} + 12 R{4,4} + 12 R{4,5}
   + 12 R{4,6} + 12 R{4,7} + 12 R{4,8} + 12 R{4,9} + 12 R{4,10}
   + 12 R{4,11} + 12 R{4,13} + 12 R{4,14} + 12 R{4,15} + 12 R{4,16}
   + 12 R{4,17} <= 12
 R2_10: 8 R{6,1} + 8 R{6,2} + 8 R{6,3} + 8 R{6,4} + 8 R{6,8} + 8 R{6,10}
   + 8 R{6,12} + 8 R{6,13} + 8 R{6,14} + 8 R{6,17} + 8 R{6,18} <= 8
 R2_11: <= 0
 R2_12: <= 0
 R2_13: <= 0
 R2_14: <= 0
 R2_15: 11 R{0,0} + 11 R{0,1} + 11 R{0,2} + 11 R{0,6} + 11 R{0,7}
   + 11 R{0,8} + 11 R{0,9} + 11 R{0,10} + 11 R{0,14} + 11 R{0,15}
   + 11 R{0,16} + 11 R{0,17} + 11 R{0,18} + 11 R{0,20} + 11 R{0,21}
   + 11 R{0,22} + 11 R{0,23} + 11 R{4,1} + 11 R{4,2} + 11 R{4,4} <= 11
 R2_16: 5 R{0,11} + 5 R{0,13} + 5 R{0,19} <= 5
 R2_17: 11 R{0,23} + 11 R{4,16} <= 11
 R2_18: 5 R{0,13} <= 5
 R2_19: 11 R{0,6} + 11 R{0,7} + 11 R{0,8} + 11 R{0,9} + 11 R{0,10}
   + 11 R{0,11} + 11 R{0,13} + 11 R{0,20} + 11 R{0,21} + 11 R{1,6}
   + 11 R{2,5} + 11 R{2,11} + 11 R{4,1} + 11 R{4,2} + 11 R{4,3} + 11 R{4,4}
   + 11 R{4,5} + 11 R{4,6} + 11 R{4,7} + 11 R{4,8} + 11 R{4,10}
   + 11 R{4,17} <= 11
 R2_20: 13 R{0,5} + 13 R{0,17} + 13 R{0,22} + 13 R{1,4} + 13 R{1,7}
   + 13 R{2,3} + 13 R{2,4} + 13 R{2,8} + 13 R{3,1} + 13 R{3,2} + 13 R{3,3}
   + 13 R{3,5} + 13 R{3,6} + 13 R{3,9} + 13 R{3,11} + 13 R{3,12}
   + 13 R{3,13} + 13 R{3,14} + 13 R{3,15} + 13 R{3,16} + 13 R{3,17}
   + 13 R{3,19} + 13 R{3,20} + 13 R{3,21} + 13 R{5,2} + 13 R{5,3}
   + 13 R{5,4} + 8 R{6,13} + 13 R{6,15} <= 13
 R2_21: <= 0
 R2_22: 10 R{4,9} + 10 R{4,12} + 10 R{4,14} + 10 R{4,15} + 10 R{4,18}
   + 10 R{4,19} <= 10
 R2_23: 14 R{0,14} + 14 R{0,15} + 14 R{0,19} + 14 R{4,3} + 14 R{4,5}
   + 14 R{4,12} + 14 R{4,14} + 14 R{4,18} + 14 R{6,2} + 14 R{6,3}
   + 14 R{6,7} + 14 R{6,12} + 14 R{6,13} + 14 R{6,16} <= 14
 R2_24: 10 R{1,7} + 10 R{3,1} + 10 R{3,2} + 10 R{3,3} + 10 R{3,4}
   + 10 R{3,6} + 10 R{3,7} + 10 R{3,8} + 10 R{3,9} + 10 R{3,10}
   + 10 R{3,12} + 10 R{3,15} + 10 R{3,20} + 10 R{3,21} + 10 R{5,6} <= 10
 R2_25: <= 13
 R2_26: 6 R{1,1} + 6 R{1,2} + 6 R{1,3} + 6 R{1,4} + 6 R{1,5} + 6 R{1,6}
   + 6 R{1,8} + 6 R{1,9} + 6 R{1,10} + 6 R{2,9} + 6 R{5,7} <= 6
 R2_27: 5 R{1,2} + 5 R{1,3} + 5 R{1,4} + 5 R{1,5} + 5 R{1,9} + 5 R{1,10}
   + 5 R{2,8} + 5 R{2,10} + 5 R{3,13} + 5 R{3,17} + 5 R{3,18} + 5 R{5,4}
   + 5 R{6,4} + 5 R{6,5} + 5 R{6,6} + 5 R{6,9} + 5 R{6,15} <= 5
 R2_28: <= 0
 R2_29: <= 0
 R2_30: <= 0
 R2_31: 6 R{6,1} + 6 R{6,2} + 6 R{6,4} + 6 R{6,5} + 6 R{6,14} + 6 R{6,16}
   + 6 R{6,17} + 6 R{6,18} <= 6
 R2_32: 7 R{0,4} + 7 R{0,5} <= 7
 R2_33: 12 R{3,15} + 12 R{6,19} <= 12
 R2_34: 5 R{0,0} + 5 R{0,1} + 5 R{0,2} + 5 R{0,6} + 5 R{0,7} + 5 R{0,8}
   + 5 R{0,9} + 5 R{0,10} + 5 R{0,11} + 5 R{0,12} + 5 R{0,13} + 5 R{0,17}
   + 5 R{0,18} + 5 R{0,21} + 5 R{0,22} + 5 R{0,23} + 5 R{3,9} + 5 R{3,11}
   <= 5
 R2_35: <= 0
 R2_36: 15 R{1,1} + 15 R{1,2} + 15 R{1,3} + 15 R{1,4} + 15 R{1,5}
   + 15 R{1,6} + 15 R{1,7} + 15 R{1,8} + 15 R{1,9} <= 16
 R2_37: 5 R{1,8} + 5 R{5,1} + 5 R{5,5} + 5 R{5,6} + 5 R{5,7} <= 5
 R2_38: <= 0
 R2_39: 15 R{0,0} + 15 R{0,1} + 15 R{0,2} + 15 R{0,6} + 15 R{0,7}
   + 15 R{0,8} + 15 R{0,9} + 15 R{0,10} + 15 R{0,11} + 15 R{0,12}
   + 15 R{0,13} + 15 R{0,17} + 15 R{0,20} + 15 R{0,21} + 15 R{0,22} <= 17
 R2_40: 15 R{2,1} + 15 R{2,2} + 15 R{2,3} + 15 R{2,4} + 15 R{2,5}
   + 15 R{2,6} + 15 R{2,7} + 15 R{2,9} + 15 R{2,11} + 15 R{5,5} <= 15
 R2_41: 5 R{0,0} + 5 R{0,1} + 5 R{0,2} + 5 R{0,7} + 5 R{0,8} + 5 R{0,9}
   + 5 R{0,10} + 5 R{0,12} + 5 R{0,14} + 5 R{0,15} + 5 R{0,16} + 5 R{0,18}
   + 5 R{0,19} + 5 R{0,21} + 5 R{0,22} + 5 R{0,23} + 5 R{3,2} + 5 R{3,3}
   + 5 R{3,5} + 5 R{3,8} + 5 R{3,9} + 5 R{3,11} + 5 R{3,13} + 5 R{3,17}
   + 5 R{3,21} + 5 R{6,12} + 5 R{6,13} <= 5
 R2_42: 4 R{2,1} + 4 R{2,2} + 4 R{2,3} + 4 R{2,4} + 4 R{2,8} + 4 R{2,9}
   + 4 R{2,10} + 4 R{2,11} <= 4
 R2_43: <= 0
 R2_44: <= 0
 R2_45: <= 0
 R2_46: 9 R{0,16} + 9 R{0,18} + 9 R{0,23} + 9 R{4,6} + 9 R{4,7} + 9 R{4,8}
   + 9 R{4,9} + 9 R{4,10} + 9 R{4,11} + 9 R{4,13} + 9 R{4,15} + 9 R{4,16}
   + 9 R{4,18} + 9 R{4,19} <= 9
 R2_47: 7 R{0,0} + 7 R{0,1} + 7 R{0,2} + 7 R{0,16} + 7 R{1,1} + 7 R{1,2}
   + 7 R{1,3} <= 7
 R2_48: 4 R{4,1} + 4 R{4,2} + 4 R{4,3} + 4 R{4,4} + 4 R{4,5} + 4 R{4,6}
   + 4 R{4,8} + 4 R{4,11} + 4 R{4,12} + 4 R{4,13} + 4 R{4,14} + 4 R{4,16}
   + 4 R{4,17} <= 4
 R2_49: <= 0
 R2_50: <= 0
 R2_51: 11 R{5,5} + 11 R{6,19} <= 11
 R2_52: 6 R{4,19} <= 10
 R2_53: 13 R{4,1} + 13 R{4,2} + 13 R{4,3} + 13 R{4,4} + 13 R{4,5}
   + 13 R{4,6} + 13 R{4,7} + 13 R{4,8} + 13 R{4,9} + 13 R{4,13}
   + 13 R{4,14} + 13 R{4,15} + 13 R{4,16} <= 13
 R2_54: 9 R{3,1} + 9 R{3,2} + 9 R{3,3} + 9 R{3,4} + 9 R{3,5} + 9 R{3,6}
   + 9 R{3,7} + 9 R{3,8} + 9 R{3,9} + 9 R{3,10} + 9 R{3,11} + 9 R{3,12}
   + 9 R{3,13} + 9 R{3,14} + 9 R{3,15} + 9 R{3,16} + 9 R{3,20} + 9 R{3,21}
   <= 9
 R2_55: <= 0
 R2_56: 6 R{0,1} + 6 R{0,2} + 6 R{0,7} + 6 R{0,20} + 6 R{3,2} + 6 R{3,3}
   + 6 R{3,5} + 6 R{3,8} + 6 R{3,9} + 6 R{3,11} + 6 R{3,13} + 6 R{3,14}
   + 6 R{3,16} + 6 R{3,17} + 6 R{3,20} + 6 R{4,10} + 6 R{4,11} + 6 R{4,17}
   + 6 R{6,2} + 6 R{6,3} + 6 R{6,5} + 6 R{6,7} + 6 R{6,9} + 6 R{6,12}
   + 6 R{6,14} + 6 R{6,16} + 6 R{6,17} <= 6
 R2_57: <= 0
 R2_58: <= 0
 R2_59: 10 R{0,6} + 10 R{0,17} + 10 R{3,16} + 10 R{4,12} + 10 R{4,18}
   + 10 R{4,19} + 10 R{6,11} <= 10
 R2_60: <= 0
 R2_61: 9 R{0,15} + 9 R{4,12} + 9 R{4,18} + 9 R{4,19} + 9 R{6,16} <= 9
 R2_62: <= 0
 R2_63: <= 0
 R2_64: <= 0
 R2_65: 5 R{3,21} + 5 R{6,1} + 5 R{6,2} + 5 R{6,3} + 5 R{6,4} + 5 R{6,5}
   + 5 R{6,6} + 5 R{6,7} + 5 R{6,8} + 5 R{6,9} + 5 R{6,10} + 5 R{6,11}
   + 5 R{6,12} + 5 R{6,13} + 5 R{6,14} + 5 R{6,15} + 5 R{6,16} + 5 R{6,17}
   + 5 R{6,18} <= 5
 R2_66: 7 R{1,9} + 7 R{3,4} + 7 R{3,18} <= 7
 R2_67: 3 R{0,9} + 3 R{0,11} + 3 R{0,14} + 3 R{0,19} + 3 R{0,20}
   + 3 R{0,21} + 3 R{3,2} + 3 R{3,3} + 3 R{3,5} + 3 R{3,8} + 3 R{3,9}
   + 3 R{3,13} + 3 R{3,14} + 3 R{3,16} + 3 R{3,20} + 3 R{3,21} + 3 R{6,7}
   <= 3
 R2_68: 6 R{4,1} + 6 R{4,3} + 6 R{4,13} <= 6
 R2_69: 7 R{0,0} + 7 R{0,1} + 7 R{0,2} + 7 R{0,6} + 7 R{0,7} + 7 R{0,8}
   + 7 R{0,9} + 7 R{0,10} + 7 R{0,11} + 7 R{0,12} + 7 R{0,14} + 7 R{0,16}
   + 7 R{0,17} + 7 R{0,19} + 7 R{0,20} + 7 R{0,21} + 7 R{0,22} + 7 R{3,14}
   + 7 R{4,1} + 7 R{4,2} + 7 R{4,3} + 7 R{4,4} + 7 R{4,5} + 7 R{4,6}
   + 7 R{4,7} + 7 R{4,8} + 7 R{4,9} + 7 R{4,10} + 7 R{4,11} + 7 R{4,12}
   + 7 R{4,13} + 7 R{4,14} + 7 R{4,15} + 7 R{4,17} <= 7
 R2_70: 11 R{6,1} + 11 R{6,2} + 11 R{6,3} + 11 R{6,4} + 11 R{6,7}
   + 11 R{6,8} + 11 R{6,10} + 11 R{6,14} + 11 R{6,16} + 11 R{6,17}
   + 11 R{6,18} <= 11
 R2_71: <= 7
 R2_72: <= 0
 R2_73: 11 R{0,0} + 11 R{0,1} + 11 R{0,2} + 11 R{0,6} + 11 R{0,7}
   + 11 R{0,8} + 11 R{0,10} + 11 R{0,12} + 11 R{0,16} + 11 R{0,17}
   + 11 R{0,18} + 11 R{0,22} + 11 R{0,23} <= 11
 R2_74: 5 R{5,1} + 5 R{5,2} + 5 R{5,3} <= 5
 R2_75: 8 R{6,1} + 8 R{6,2} + 8 R{6,3} + 8 R{6,4} + 8 R{6,5} + 8 R{6,6}
   + 8 R{6,7} + 8 R{6,8} + 8 R{6,9} + 8 R{6,10} + 8 R{6,12} + 8 R{6,13}
   + 8 R{6,14} + 8 R{6,15} + 8 R{6,16} + 8 R{6,17} + 8 R{6,18} <= 8
 R2_76: 12 R{0,4} + 12 R{3,3} + 12 R{3,9} + 12 R{3,16} + 12 R{5,6}
   + 12 R{5,7} + 12 R{6,14} + 5 R{6,17} + 12 R{6,18} <= 12
 R2_77: 7 R{0,1} + 7 R{0,2} + 7 R{0,6} + 7 R{0,8} + 7 R{0,10} + 7 R{0,12}
   + 7 R{1,2} + 7 R{1,3} + 7 R{1,4} + 7 R{1,10} + 7 R{2,2} + 7 R{2,3}
   + 7 R{2,4} + 7 R{2,5} + 7 R{2,6} + 7 R{2,7} + 7 R{3,5} + 7 R{3,7}
   + 7 R{3,8} + 7 R{3,10} + 7 R{4,2} + 7 R{6,3} + 7 R{6,6} + 7 R{6,7}
   + 7 R{6,8} + 7 R{6,10} + 7 R{6,12} + 7 R{6,13} <= 7
Bounds
End
